\ENCODING=ISO-8859-1
\Problem name: TSP_MIP_MTZ

Minimize
 obj: 5 x_0_0 + 8 x_0_1 + 2 x_0_2 + x_0_3 + 5 x_1_0 + x_1_1 + 5 x_1_2 + 3 x_1_3
      + 6 x_2_0 + 3 x_2_1 + 4 x_2_2 + 2 x_2_3 + 6 x_3_0 + 3 x_3_1 + 6 x_3_2
      + 3 x_3_3
Subject To
 c1:  x_0_0 + x_0_1 + x_0_2 + x_0_3  = 1
 c2:  x_0_0 + x_1_0 + x_2_0 + x_3_0  = 1
 c3:  x_1_0 + x_1_1 + x_1_2 + x_1_3  = 1
 c4:  x_0_1 + x_1_1 + x_2_1 + x_3_1  = 1
 c5:  x_2_0 + x_2_1 + x_2_2 + x_2_3  = 1
 c6:  x_0_2 + x_1_2 + x_2_2 + x_3_2  = 1
 c7:  x_3_0 + x_3_1 + x_3_2 + x_3_3  = 1
 c8:  x_0_3 + x_1_3 + x_2_3 + x_3_3  = 1
 c9:  3 x_1_1 <= 2
 c10: 3 x_1_2 + u_1 - u_2 <= 2
 c11: 3 x_1_3 + u_1 - u_3 <= 2
 c12: 3 x_2_1 - u_1 + u_2 <= 2
 c13: 3 x_2_2 <= 2
 c14: 3 x_2_3 + u_2 - u_3 <= 2
 c15: 3 x_3_1 - u_1 + u_3 <= 2
 c16: 3 x_3_2 - u_2 + u_3 <= 2
 c17: 3 x_3_3 <= 2
Bounds
 0 <= x_0_0 <= 1
 0 <= x_0_1 <= 1
 0 <= x_0_2 <= 1
 0 <= x_0_3 <= 1
 0 <= x_1_0 <= 1
 0 <= x_1_1 <= 1
 0 <= x_1_2 <= 1
 0 <= x_1_3 <= 1
 0 <= x_2_0 <= 1
 0 <= x_2_1 <= 1
 0 <= x_2_2 <= 1
 0 <= x_2_3 <= 1
 0 <= x_3_0 <= 1
 0 <= x_3_1 <= 1
 0 <= x_3_2 <= 1
 0 <= x_3_3 <= 1
 2 <= u_1 <= 4
 2 <= u_2 <= 4
 2 <= u_3 <= 4
Binaries
 x_0_0  x_0_1  x_0_2  x_0_3  x_1_0  x_1_1  x_1_2  x_1_3  x_2_0  x_2_1  x_2_2 
 x_2_3  x_3_0  x_3_1  x_3_2  x_3_3 
Generals
 u_1  u_2  u_3 
End
